14 15 41 96 70 
59 5 44 38 4 77 
95 76 81 26 100 
36 47 19 49 32 
27 31 7 8 1 
39 75 94 43 93 
69 30 51 54 
65 71 78 34 24 
33 99 6 37 
92 2 79 35 80 
45 64 46 60 
52 88 84 97 
72 12 40 3 68 
28 21 73 22 56 89 58 
63 62 11 90 10 48 
83 82 85 17 
42 98 16 86 25 
29 53 74 
23 67 55 
18 50 13 
61 57 91 
9 66 
20 
87 

